
  32    4
  10   10   10   10

   0   0   0   0   0  12 2 3 4 5 7 11 12 27 28 29 30 31 
   8   1   1   1   0   6 26 25 24 21 17 10 
   8   0   3   7   1   5 23 21 18 14 6 
  10   4   3   0   6   4 20 17 15 9 
   8   5   1   0   8   3 20 19 8 
   5   1   0   6   3   2 16 15 
   9   4   3   0   3   2 22 16 
   3   4   4   0   3   1 13 
   8   6   0   6   4   1 13 
   8   4   5   5   0   1 14 
   4   6   4   0   6   1 19 
   4   0   1   4   4   1 18 
   8   0   2   5   5   1 32
   8   0   4   5   2   1 32
   2   3   8   0   3   1 32
   9   5   0   2   1   1 32
  10   0   4   4   4   1 32
   5   0   2   4   2   1 32
   6   8  10   4   0   1 32
   9   3   5   0   1   1 32
   8   0   1   2   5   1 32
   4   3   0   5   3   1 32
   7   0   5   5   6   1 32
   6   7   6   2   0   1 32
   8   0   4   4   5   1 32
   9   4   5   2   0   1 32
   1   2   3   4   0   1 32
   6   1   0   4   5   1 32
   5   5   3   2   0   1 32
   3   0   5   4   6   1 32
   5   0   8   5   6   1 32
   0   0   0   0   0   0 
